DATASET = "thpack6";
INSTANCE = "003";

WIDTH = 233;
HEIGHT = 220;
LENGTH = 587;

NO_OF_SHAPES = 15;
size = [|
  97,81,27 |
  102,78,39 |
  113,46,36 |
  66,50,42 |
  101,30,26 |
  100,56,35 |
  91,50,40 |
  106,61,56 |
  103,63,58 |
  75,57,41 |
  71,68,64 |
  85,67,39 |
  97,63,56 |
  61,48,30 |
  80,54,35 |
|];

verticality = [|
  0,0,1 |
  0,0,1 |
  0,1,1 |
  1,1,1 |
  0,1,1 |
  0,1,1 |
  0,1,1 |
  1,1,1 |
  1,1,1 |
  1,1,1 |
  1,1,1 |
  0,1,1 |
  1,1,1 |
  0,1,1 |
  0,1,1 |
|];

box_count = [
  6,
  6,
  15,
  8,
  6,
  7,
  12,
  10,
  8,
  11,
  6,
  14,
  9,
  11,
  9,
];
